% RUNS ON flatzinc
% RUNS ON fzn_fd_canon
% RUNS ON fzn_fdlp_canon

var set of 0..1: x1 :: output_var;
var set of 1..2: x2 :: output_var;
var bool: x3 :: output_var;
constraint set_lt_reif({}, {1, 2, 3}, true);
constraint set_lt_reif({1, 2, 3}, {}, false);
constraint set_lt_reif(x1, x2, x3);
solve satisfy;
